SPARKNaCl/why3-z3/sparknacl-utils.adb_100_27_range_check_1.smt2
;; produced by z3_gnatprove.drv ;;
(set-info :smt-lib-version 2.5)
(set-info :source |VC generated by SPARK 2014|)
(set-info :category industrial)
(set-info :status unknown)
;;; generated by SMT-LIB2 driver
;;; SMT-LIB2 driver: bit-vectors, common part
;;; SMT-LIB2: integer arithmetic
(declare-datatypes ()
  ((t__ref (t__refqtmk (t__content (_ BitVec 16))))))

(declare-sort gf16_normal_limb 0)

;; "to_rep"
(declare-fun to_rep (gf16_normal_limb) (_ BitVec 16))

;; "of_rep"
(declare-fun of_rep ((_ BitVec 16)) gf16_normal_limb)

;; "inversion_axiom"
(assert
  (forall ((x gf16_normal_limb))
    (! (= (of_rep (to_rep x)) x) :pattern ((to_rep x)) )))

;; "range_axiom"
(assert true)

;; "coerce_axiom"
(assert
  (forall ((x (_ BitVec 16)))
    (! (= (to_rep (of_rep x)) x) :pattern ((to_rep (of_rep x))) )))

(declare-sort map1 0)

(declare-datatypes ()
  ((map__ref (map__refqtmk (map__content map1)))))

;; "has_bounds"
(declare-fun has_bounds (map1
  Int
  Int) Bool)

(declare-const swap Bool)

(declare-const p map1)

(declare-const q map1)

(declare-const t (_ BitVec 16))

;; "t'unused"
(define-fun tqtunused () t__ref
  (t__refqtmk t))

;; "q'unused"
(define-fun qqtunused () map__ref
  (map__refqtmk q))

;; "p'unused"
(define-fun pqtunused () map__ref
  (map__refqtmk p))

;; "Assume"
(assert (has_bounds p 0 15))

;; "Assume"
(assert (has_bounds q 0 15))

;; "temp___729"
(define-fun temp___729 () Bool
  swap)

;; "temp___old_763'unused"
(define-fun temp___old_763qtunused () map1
  q)

;; "map__content'result'unused"
(define-fun map__contentqtresultqtunused () map1
  q)

;; "temp___old_762'unused"
(define-fun temp___old_762qtunused () map1
  p)

;; "map__content'result'unused"
(define-fun map__contentqtresultqtunused1 () map1
  p)

;; "temp___old_761'unused"
(define-fun temp___old_761qtunused () map1
  p)

;; "map__content'result'unused"
(define-fun map__contentqtresultqtunused2 () map1
  p)

;; "temp___old_760'unused"
(define-fun temp___old_760qtunused () map1
  q)

;; "map__content'result'unused"
(define-fun map__contentqtresultqtunused3 () map1
  q)

;; "Assume"
(assert true)

;; "Assume"
(assert true)

;; "o"
(define-fun o () Int
  (ite swap 1 0))

;; "to_int'result'unused"
(define-fun to_intqtresultqtunused () Int
  o)

;; "o"
(define-fun o1 () (_ BitVec 16)
  ((_ int2bv 16) o))

;; "of_int'result'unused"
(define-fun of_intqtresultqtunused () (_ BitVec 16)
  o1)

;; "o"
(define-fun o2 () (_ BitVec 16)
  (bvmul #xFFFF o1))

;; "mul'result'unused"
(define-fun mulqtresultqtunused () (_ BitVec 16)
  o2)

;; Goal "def'vc"
;; File "sparknacl-utils.ads", line 44, characters 0-0
(assert
  (not true))

(check-sat)
